\ENCODING=ISO-8859-1
\Problem name: IloCplex

Minimize
 obj: 1000000000000 l0 + l183 + l202 + l233 + 1000000000000 l1 + l212 + l221
      + l223 + l228 + l230 + l234 + 1000000000000 l2 + l203 + l217 + l250
      + 1000000000000 l3 + l215 + l220 + l225 + l264 + 1000000000000 l4 + l208
      + l210 + l218 + l226 + l246 + l268 + l273 + 1000000000000 l5 + l193
      + l194 + l198 + l201 + l205 + l229 + l242 + l267 + 1000000000000 l6
      + l158 + l197 + l216 + l236 + 1000000000000 l7 + l184 + l185 + l192
      + l196 + l240 + l266 + 1000000000000 l8 + l168 + l175 + l195 + l244
      + l261 + 1000000000000 l9 + l167 + l176 + l180 + l182 + l200 + l263
      + l280 + 1000000000000 l10 + l160 + l164 + l165 + l166 + l190 + l231
      + 1000000000000 l11 + l143 + l144 + l154 + l155 + l162 + l181 + l189
      + l191 + 1000000000000 l12 + l148 + l151 + l174 + l207 + l251 + l254
      + 1000000000000 l13 + l126 + l141 + l142 + l150 + l157 + l179 + l186
      + l214 + l238 + l256 + l265 + l270 + l276 + l282 + l285
      + 1000000000000 l14 + l130 + l132 + l134 + l140 + l159 + l187
      + 1000000000000 l15 + l120 + l121 + l122 + l147 + l173 + l188 + l209
      + l213 + l219 + l222 + l232 + l237 + l249 + l259 + l271 + l272 + l277
      + l281 + l283 + 1000000000000 l16 + l110 + l116 + l139 + l149 + l152
      + l199 + l204 + l211 + l224 + l227 + l235 + l239 + l241 + l245 + l247
      + l248 + l253 + l260 + l262 + 1000000000000 l17 + l104 + l117 + l133
      + l137 + l169 + l172 + l243 + l258 + 1000000000000 l18 + l100 + l107
      + l206 + l269 + l275 + l279 + 1000000000000 l19 + l97 + l103 + l115
      + l119 + l124 + l135 + l153 + l156 + l252 + 1000000000000 l20 + l92
      + l109 + l125 + l163 + l170 + l171 + l274 + 1000000000000 l21 + l85 + l96
      + l123 + l138 + l145 + l146 + l278 + 1000000000000 l22 + l88 + l94 + l101
      + l106 + l111 + l112 + l128 + l177 + l178 + l255 + l284
      + 1000000000000 l23 + l87 + l95 + l102 + l108 + l114 + l118 + l129 + l131
      + l136 + l257 + 1000000000000 l24 + l78 + l81 + l83 + l105
      + 1000000000000 l25 + l84 + l99 + l113 + l161 + 1000000000000 l26 + l79
      + l80 + l86 + l90 + l91 + 1000000000000 l27 + l76 + l77 + l89 + l127
      + 1000000000000 l28 + l73 + l74 + l75 + l98 + 1000000000000 l29 + l82
      + l93 + 1000000000000 l30 + l70 + l71 + l72 + 1000000000000 l31 + l66
      + l67 + l68 + l69 + 1000000000000 l32 + 1000000000000 l33 + l58 + l59
      + l62 + l64 + l65 + 1000000000000 l34 + l54 + l55 + l56 + l57 + l60 + l61
      + l63 + 1000000000000 l35 + l50 + l51 + l52 + l53 + 1000000000000 l36
      + 1000000000000 l37 + 1000000000000 l38 + 1000000000000 l39
      + 1000000000000 l40 + 1000000000000 l41 + 1000000000000 l42
      + 1000000000000 l43 + 1000000000000 l44 + 1000000000000 l45
      + 1000000000000 l46 + 1000000000000 l47 + 1000000000000 l48
      + 1000000000000 l49
Subject To
 c1:  l0 + l183 + l202 + l233  = 1
 c2:  l1 + l212 + l221 + l223 + l228 + l230 + l234  = 1
 c3:  l2 + l203 + l217 + l250  = 1
 c4:  l3 + l215 + l220 + l225 + l264  = 1
 c5:  l4 + l208 + l210 + l218 + l226 + l246 + l268 + l273  = 1
 c6:  l5 + l193 + l194 + l198 + l201 + l205 + l229 + l242 + l267  = 1
 c7:  l6 + l158 + l197 + l216 + l236  = 1
 c8:  l7 + l184 + l185 + l192 + l196 + l240 + l266  = 1
 c9:  l8 + l168 + l175 + l195 + l244 + l261  = 1
 c10: l9 + l167 + l176 + l180 + l182 + l200 + l263 + l280  = 1
 c11: l10 + l160 + l164 + l165 + l166 + l190 + l231  = 1
 c12: l11 + l143 + l144 + l154 + l155 + l162 + l181 + l189 + l191  = 1
 c13: l12 + l148 + l151 + l174 + l207 + l251 + l254  = 1
 c14: l13 + l126 + l141 + l142 + l150 + l157 + l179 + l186 + l214 + l238 + l256
      + l265 + l270 + l276 + l282 + l285  = 1
 c15: l14 + l130 + l132 + l134 + l140 + l159 + l187  = 1
 c16: l15 + l120 + l121 + l122 + l147 + l173 + l188 + l209 + l213 + l219 + l222
      + l232 + l237 + l249 + l259 + l271 + l272 + l277 + l281 + l283  = 1
 c17: l16 + l110 + l116 + l139 + l149 + l152 + l199 + l204 + l211 + l224 + l227
      + l235 + l239 + l241 + l245 + l247 + l248 + l253 + l260 + l262  = 1
 c18: l214 + l271 + l110 + l253 + l17 + l104 + l117 + l133 + l137 + l169 + l172
      + l243 + l258  = 1
 c19: l151 + l116 + l104 + l18 + l100 + l107 + l206 + l269 + l275 + l279  = 1
 c20: l159 + l222 + l100 + l19 + l97 + l103 + l115 + l119 + l124 + l135 + l153
      + l156 + l252  = 1
 c21: l191 + l227 + l97 + l20 + l92 + l109 + l125 + l163 + l170 + l171 + l274
       = 1
 c22: l205 + l190 + l281 + l152 + l245 + l172 + l92 + l21 + l85 + l96 + l123
      + l138 + l145 + l146 + l278  = 1
 c23: l236 + l263 + l164 + l179 + l121 + l232 + l204 + l260 + l243 + l115 + l92
      + l170 + l22 + l88 + l94 + l101 + l106 + l111 + l112 + l128 + l177 + l178
      + l255 + l284  = 1
 c24: l195 + l280 + l162 + l254 + l173 + l137 + l279 + l156 + l252 + l274 + l85
      + l96 + l88 + l94 + l23 + l87 + l95 + l102 + l108 + l114 + l118 + l129
      + l131 + l136 + l257  = 1
 c25: l220 + l168 + l265 + l122 + l209 + l272 + l211 + l235 + l137 + l206
      + l146 + l284 + l87 + l136 + l24 + l78 + l81 + l83 + l105  = 1
 c26: l196 + l182 + l143 + l187 + l188 + l247 + l133 + l135 + l109 + l171 + l85
      + l128 + l284 + l95 + l108 + l118 + l81 + l83 + l25 + l84 + l99 + l113
      + l161  = 1
 c27: l234 + l216 + l192 + l175 + l174 + l186 + l140 + l120 + l213 + l199
      + l117 + l138 + l112 + l102 + l129 + l81 + l26 + l79 + l80 + l86 + l90
      + l91  = 1
 c28: l223 + l201 + l158 + l155 + l270 + l134 + l269 + l103 + l153 + l138
      + l106 + l128 + l95 + l114 + l131 + l78 + l113 + l79 + l86 + l27 + l76
      + l77 + l89 + l127  = 1
 c29: l202 + l176 + l166 + l231 + l150 + l132 + l140 + l147 + l115 + l123
      + l145 + l129 + l131 + l78 + l84 + l99 + l161 + l80 + l90 + l76 + l127
      + l28 + l73 + l74 + l75 + l98  = 1
 c30: l183 + l228 + l208 + l189 + l126 + l150 + l285 + l219 + l277 + l224
      + l247 + l262 + l243 + l258 + l107 + l275 + l119 + l153 + l125 + l146
      + l101 + l111 + l178 + l102 + l118 + l105 + l99 + l113 + l79 + l91 + l76
      + l77 + l89 + l73 + l74 + l75 + l98 + l29 + l82 + l93  = 1
 c31: l230 + l215 + l229 + l197 + l165 + l166 + l207 + l157 + l256 + l132
      + l149 + l224 + l172 + l206 + l156 + l125 + l163 + l138 + l112 + l177
      + l178 + l114 + l129 + l136 + l78 + l99 + l161 + l89 + l73 + l74 + l82
      + l93 + l30 + l70 + l71 + l72  = 1
 c32: l217 + l250 + l242 + l180 + l154 + l148 + l142 + l179 + l219 + l139
      + l133 + l119 + l109 + l171 + l96 + l94 + l177 + l178 + l84 + l79 + l91
      + l127 + l74 + l75 + l93 + l70 + l71 + l72 + l31 + l66 + l67 + l68 + l69
       = 1
 c33: l225 + l267 + l200 + l155 + l181 + l276 + l285 + l120 + l259 + l281
      + l283 + l149 + l235 + l245 + l258 + l275 + l274 + l96 + l145 + l278
      + l88 + l112 + l284 + l257 + l105 + l76 + l77 + l73 + l98 + l82 + l70
      + l71 + l72 + l66 + l67 + l68 + l69 + l32  = 1
 c34: l210 + l273 + l193 + l185 + l144 + l181 + l126 + l259 + l199 + l239
      + l241 + l248 + l119 + l124 + l123 + l101 + l106 + l111 + l178 + l255
      + l87 + l95 + l136 + l257 + l105 + l161 + l80 + l86 + l90 + l77 + l74
      + l93 + l70 + l66 + l68 + l69 + l33 + l58 + l59 + l62 + l64 + l65  = 1
 c35: l203 + l267 + l184 + l266 + l167 + l148 + l251 + l256 + l282 + l134
      + l122 + l188 + l249 + l259 + l283 + l139 + l248 + l262 + l117 + l169
      + l258 + l107 + l124 + l163 + l145 + l278 + l111 + l255 + l131 + l257
      + l81 + l113 + l161 + l90 + l91 + l89 + l127 + l73 + l72 + l67 + l58
      + l59 + l62 + l64 + l65 + l34 + l54 + l55 + l56 + l57 + l60 + l61 + l63
       = 1
 c36: l250 + l218 + l198 + l197 + l200 + l160 + l144 + l189 + l141 + l157
      + l276 + l187 + l173 + l213 + l219 + l139 + l199 + l239 + l241 + l260
      + l169 + l275 + l135 + l153 + l109 + l125 + l274 + l96 + l123 + l88
      + l106 + l102 + l131 + l83 + l80 + l89 + l75 + l93 + l70 + l67 + l68
      + l58 + l65 + l54 + l55 + l56 + l57 + l60 + l61 + l63 + l35 + l50 + l51
      + l52 + l53  = 1
 c37: l210 + l193 + l194 + l244 + l261 + l167 + l144 + l154 + l207 + l141
      + l142 + l282 + l130 + l147 + l209 + l237 + l277 + l149 + l204 + l262
      + l117 + l107 + l206 + l103 + l124 + l135 + l109 + l145 + l146 + l278
      + l94 + l101 + l255 + l87 + l102 + l114 + l83 + l99 + l80 + l86 + l76
      + l75 + l82 + l71 + l72 + l66 + l67 + l58 + l59 + l64 + l54 + l55 + l56
      + l57 + l63 + l50 + l51 + l52 + l53 + l36  = 1
 c38: l212 + l268 + l273 + l194 + l198 + l201 + l216 + l240 + l244 + l165
      + l181 + l207 + l254 + l126 + l186 + l238 + l270 + l147 + l232 + l237
      + l249 + l277 + l211 + l239 + l241 + l169 + l269 + l103 + l119 + l135
      + l252 + l125 + l278 + l101 + l177 + l87 + l108 + l114 + l118 + l105
      + l84 + l113 + l79 + l80 + l90 + l98 + l82 + l71 + l72 + l68 + l69 + l58
      + l59 + l62 + l65 + l54 + l55 + l56 + l57 + l60 + l50 + l51 + l52 + l53
      + l37  = 1
 c39: l203 + l218 + l246 + l268 + l229 + l184 + l266 + l261 + l176 + l160
      + l231 + l174 + l142 + l256 + l130 + l237 + l139 + l152 + l247 + l169
      + l172 + l107 + l279 + l124 + l252 + l170 + l101 + l128 + l108 + l118
      + l257 + l78 + l86 + l90 + l75 + l98 + l82 + l93 + l71 + l68 + l69 + l58
      + l59 + l64 + l65 + l54 + l55 + l56 + l57 + l60 + l61 + l63 + l50 + l51
      + l52 + l53 + l38  = 1
 c40: l212 + l264 + l226 + l246 + l184 + l261 + l180 + l148 + l251 + l238
      + l282 + l120 + l237 + l249 + l272 + l283 + l204 + l239 + l241 + l279
      + l170 + l85 + l146 + l278 + l106 + l111 + l112 + l177 + l255 + l102
      + l108 + l257 + l78 + l161 + l77 + l98 + l72 + l66 + l68 + l58 + l59
      + l62 + l64 + l54 + l55 + l56 + l57 + l60 + l61 + l50 + l51 + l52 + l53
      + l39  = 1
 c41: l194 + l175 + l200 + l154 + l265 + l130 + l173 + l152 + l211 + l224
      + l248 + l253 + l169 + l100 + l269 + l156 + l252 + l163 + l170 + l171
      + l123 + l88 + l128 + l255 + l114 + l118 + l131 + l136 + l84 + l99 + l80
      + l91 + l77 + l127 + l98 + l70 + l71 + l66 + l69 + l58 + l59 + l62 + l54
      + l55 + l56 + l57 + l60 + l61 + l63 + l50 + l51 + l52 + l53 + l40  = 1
 c42: l217 + l185 + l180 + l143 + l162 + l141 + l238 + l276 + l130 + l187
      + l121 + l188 + l209 + l260 + l133 + l275 + l97 + l163 + l274 + l123
      + l138 + l145 + l94 + l106 + l112 + l108 + l83 + l105 + l84 + l90 + l91
      + l76 + l89 + l82 + l70 + l67 + l69 + l58 + l59 + l62 + l64 + l54 + l55
      + l56 + l57 + l60 + l61 + l63 + l50 + l51 + l52 + l53 + l41  = 1
 c43: l196 + l168 + l160 + l164 + l231 + l251 + l186 + l238 + l282 + l132
      + l249 + l116 + l104 + l275 + l103 + l115 + l153 + l163 + l88 + l101
      + l111 + l108 + l114 + l83 + l84 + l86 + l91 + l77 + l74 + l82 + l72
      + l67 + l69 + l62 + l64 + l65 + l54 + l55 + l56 + l57 + l60 + l61 + l63
      + l50 + l51 + l52 + l53 + l42  = 1
 c44: l221 + l198 + l158 + l189 + l142 + l157 + l270 + l134 + l121 + l269 + l97
      + l111 + l87 + l129 + l83 + l99 + l113 + l79 + l86 + l127 + l73 + l98
      + l93 + l66 + l68 + l62 + l64 + l65 + l54 + l55 + l56 + l60 + l63 + l50
      + l51 + l52 + l53 + l43  = 1
 c45: l215 + l225 + l264 + l208 + l226 + l242 + l185 + l244 + l261 + l167
      + l176 + l160 + l165 + l154 + l141 + l282 + l147 + l213 + l237 + l272
      + l283 + l235 + l241 + l248 + l104 + l117 + l243 + l279 + l97 + l171
      + l85 + l123 + l146 + l278 + l94 + l101 + l128 + l255 + l257 + l84 + l80
      + l89 + l127 + l73 + l75 + l93 + l66 + l67 + l69 + l62 + l64 + l65 + l54
      + l55 + l61 + l63 + l50 + l51 + l52 + l53 + l44  = 1
 c46: l233 + l212 + l264 + l246 + l268 + l193 + l194 + l242 + l192 + l240
      + l266 + l244 + l280 + l162 + l251 + l141 + l157 + l238 + l265 + l132
      + l237 + l249 + l110 + l224 + l245 + l248 + l260 + l243 + l258 + l107
      + l103 + l125 + l88 + l106 + l177 + l255 + l284 + l108 + l81 + l76 + l127
      + l74 + l71 + l66 + l67 + l68 + l62 + l64 + l65 + l54 + l61 + l63 + l50
      + l51 + l52 + l53 + l45  = 1
 c47: l202 + l264 + l246 + l197 + l192 + l266 + l167 + l182 + l144 + l155
      + l150 + l238 + l265 + l285 + l121 + l147 + l232 + l149 + l152 + l235
      + l239 + l262 + l117 + l100 + l115 + l171 + l111 + l177 + l255 + l95
      + l257 + l84 + l79 + l86 + l73 + l74 + l98 + l82 + l71 + l66 + l67 + l58
      + l64 + l65 + l60 + l61 + l50 + l51 + l52 + l53 + l46  = 1
 c48: l183 + l242 + l240 + l182 + l160 + l143 + l174 + l157 + l140 + l122
      + l213 + l133 + l100 + l124 + l153 + l170 + l123 + l278 + l177 + l178
      + l87 + l95 + l129 + l83 + l113 + l91 + l76 + l75 + l98 + l93 + l70 + l72
      + l66 + l69 + l59 + l62 + l64 + l65 + l60 + l61 + l63 + l50 + l51 + l52
      + l47  = 1
 c49: l233 + l221 + l228 + l215 + l208 + l229 + l236 + l190 + l143 + l189
      + l207 + l141 + l186 + l270 + l276 + l130 + l134 + l271 + l199 + l224
      + l239 + l104 + l133 + l206 + l269 + l103 + l115 + l252 + l92 + l87
      + l118 + l129 + l136 + l77 + l89 + l127 + l75 + l82 + l70 + l71 + l67
      + l68 + l59 + l62 + l64 + l65 + l60 + l61 + l63 + l50 + l51 + l48  = 1
 c50: l221 + l228 + l218 + l268 + l273 + l193 + l198 + l240 + l175 + l244
      + l165 + l144 + l174 + l254 + l142 + l150 + l238 + l270 + l130 + l122
      + l209 + l232 + l249 + l277 + l110 + l241 + l169 + l107 + l269 + l103
      + l156 + l252 + l85 + l278 + l94 + l106 + l95 + l102 + l83 + l105 + l79
      + l80 + l73 + l74 + l66 + l67 + l68 + l69 + l59 + l62 + l63 + l50 + l49
       = 1
Bounds
      l202 = 0
      l212 = 0
      l221 = 0
      l223 = 0
      l228 = 0
      l230 = 0
      l203 = 0
      l215 = 0
      l225 = 0
      l264 = 0
      l208 = 0
      l218 = 0
      l226 = 0
      l246 = 0
      l268 = 0
      l193 = 0
      l194 = 0
      l198 = 0
      l201 = 0
      l229 = 0
      l242 = 0
      l267 = 0
      l216 = 0
      l184 = 0
      l185 = 0
      l192 = 0
      l175 = 0
      l244 = 0
      l261 = 0
      l167 = 0
      l176 = 0
      l180 = 0
      l200 = 0
      l160 = 0
      l164 = 0
      l165 = 0
      l190 = 0
      l144 = 0
      l154 = 0
      l155 = 0
      l181 = 0
      l189 = 0
      l148 = 0
      l174 = 0
      l207 = 0
      l251 = 0
      l126 = 0
      l141 = 0
      l142 = 0
      l150 = 0
      l157 = 0
      l179 = 0
      l186 = 0
      l238 = 0
      l265 = 0
      l282 = 0
      l130 = 0
      l132 = 0
      l134 = 0
      l140 = 0
      l187 = 0
      l120 = 0
      l121 = 0
      l122 = 0
      l147 = 0
      l173 = 0
      l188 = 0
      l209 = 0
      l213 = 0
      l219 = 0
      l222 = 0
      l232 = 0
      l237 = 0
      l249 = 0
      l259 = 0
      l271 = 0
      l277 = 0
      l281 = 0
      l110 = 0
      l116 = 0
      l139 = 0
      l149 = 0
      l152 = 0
      l199 = 0
      l204 = 0
      l211 = 0
      l227 = 0
      l235 = 0
      l239 = 0
      l241 = 0
      l245 = 0
      l247 = 0
      l248 = 0
      l260 = 0
      l262 = 0
      l104 = 0
      l117 = 0
      l133 = 0
      l169 = 0
      l172 = 0
      l243 = 0
      l100 = 0
      l107 = 0
      l269 = 0
      l279 = 0
      l97 = 0
      l103 = 0
      l115 = 0
      l119 = 0
      l124 = 0
      l135 = 0
      l153 = 0
      l156 = 0
      l252 = 0
      l92 = 0
      l109 = 0
      l125 = 0
      l163 = 0
      l170 = 0
      l171 = 0
      l85 = 0
      l96 = 0
      l123 = 0
      l138 = 0
      l145 = 0
      l146 = 0
      l278 = 0
      l88 = 0
      l94 = 0
      l101 = 0
      l106 = 0
      l111 = 0
      l112 = 0
      l128 = 0
      l177 = 0
      l178 = 0
      l255 = 0
      l87 = 0
      l95 = 0
      l102 = 0
      l108 = 0
      l114 = 0
      l118 = 0
      l129 = 0
      l131 = 0
      l136 = 0
      l257 = 0
      l78 = 0
      l81 = 0
      l83 = 0
      l105 = 0
      l84 = 0
      l99 = 0
      l113 = 0
      l161 = 0
      l79 = 0
      l80 = 0
      l86 = 0
      l90 = 0
      l91 = 0
      l76 = 0
      l77 = 0
      l89 = 0
      l127 = 0
      l73 = 0
      l74 = 0
      l75 = 0
      l98 = 0
      l82 = 0
      l93 = 0
      l70 = 0
      l71 = 0
      l72 = 0
      l66 = 0
      l67 = 0
      l68 = 0
      l69 = 0
      l58 = 0
      l59 = 0
      l62 = 0
      l64 = 0
      l65 = 0
      l54 = 0
      l55 = 0
      l56 = 0
      l57 = 0
      l60 = 0
      l61 = 0
      l63 = 0
      l50 = 0
      l51 = 0
      l52 = 0
      l53 = 0
End
